p cnf 839 2606
1 -4 51 0
-1 -4 -51 0
1 4 -51 0
-1 4 51 0
5 -6 52 0
-5 -6 -52 0
5 6 -52 0
-5 6 52 0
-7 8 53 0
7 8 -53 0
-7 -8 -53 0
7 -8 53 0
-9 -11 54 0
9 -11 -54 0
-9 11 -54 0
9 11 54 0
12 15 55 0
-12 15 -55 0
12 -15 -55 0
-12 -15 55 0
-17 -18 56 0
17 -18 -56 0
-17 18 -56 0
17 18 56 0
19 25 57 0
-19 25 -57 0
19 -25 -57 0
-19 -25 57 0
-26 -28 58 0
26 -28 -58 0
-26 28 -58 0
26 28 58 0
-29 32 59 0
29 32 -59 0
-29 -32 -59 0
29 -32 59 0
33 37 60 0
-33 37 -60 0
33 -37 -60 0
-33 -37 60 0
-38 41 61 0
38 41 -61 0
-38 -41 -61 0
38 -41 61 0
42 43 62 0
-42 43 -62 0
42 -43 -62 0
-42 -43 62 0
-44 -47 63 0
44 -47 -63 0
-44 47 -63 0
44 47 63 0
50 -51 64 0
-50 -51 -64 0
50 51 -64 0
-50 51 64 0
52 -53 65 0
-52 -53 -65 0
52 53 -65 0
-52 53 65 0
54 -55 66 0
-54 -55 -66 0
54 55 -66 0
-54 55 66 0
56 -57 67 0
-56 -57 -67 0
56 57 -67 0
-56 57 67 0
58 -59 68 0
-58 -59 -68 0
58 59 -68 0
-58 59 68 0
60 -61 69 0
-60 -61 -69 0
60 61 -69 0
-60 61 69 0
62 -63 70 0
-62 -63 -70 0
62 63 -70 0
-62 63 70 0
64 -65 71 0
-64 -65 -71 0
64 65 -71 0
-64 65 71 0
66 -67 72 0
-66 -67 -72 0
66 67 -72 0
-66 67 72 0
68 -69 73 0
-68 -69 -73 0
68 69 -73 0
-68 69 73 0
70 -71 74 0
-70 -71 -74 0
70 71 -74 0
-70 71 74 0
72 -73 75 0
-72 -73 -75 0
72 73 -75 0
-72 73 75 0
74 75 0
-74 -75 0
-1 -4 76 0
1 -4 -76 0
-1 4 -76 0
1 4 76 0
6 7 77 0
-6 7 -77 0
6 -7 -77 0
-6 -7 77 0
9 10 78 0
-9 10 -78 0
9 -10 -78 0
-9 -10 78 0
11 -12 79 0
-11 -12 -79 0
11 12 -79 0
-11 12 79 0
13 -14 80 0
-13 -14 -80 0
13 14 -80 0
-13 14 80 0
-18 -19 81 0
18 -19 -81 0
-18 19 -81 0
18 19 81 0
-20 21 82 0
20 21 -82 0
-20 -21 -82 0
20 -21 82 0
22 24 83 0
-22 24 -83 0
22 -24 -83 0
-22 -24 83 0
-25 -26 84 0
25 -26 -84 0
-25 26 -84 0
25 26 84 0
-27 29 85 0
27 29 -85 0
-27 -29 -85 0
27 -29 85 0
-30 31 86 0
30 31 -86 0
-30 -31 -86 0
30 -31 86 0
32 39 87 0
-32 39 -87 0
32 -39 -87 0
-32 -39 87 0
-41 -45 88 0
41 -45 -88 0
-41 45 -88 0
41 45 88 0
48 -50 89 0
-48 -50 -89 0
48 50 -89 0
-48 50 89 0
76 -77 90 0
-76 -77 -90 0
76 77 -90 0
-76 77 90 0
78 -79 91 0
-78 -79 -91 0
78 79 -91 0
-78 79 91 0
80 -81 92 0
-80 -81 -92 0
80 81 -92 0
-80 81 92 0
82 -83 93 0
-82 -83 -93 0
82 83 -93 0
-82 83 93 0
84 -85 94 0
-84 -85 -94 0
84 85 -94 0
-84 85 94 0
86 -87 95 0
-86 -87 -95 0
86 87 -95 0
-86 87 95 0
88 -89 96 0
-88 -89 -96 0
88 89 -96 0
-88 89 96 0
90 -91 97 0
-90 -91 -97 0
90 91 -97 0
-90 91 97 0
92 -93 98 0
-92 -93 -98 0
92 93 -98 0
-92 93 98 0
94 -95 99 0
-94 -95 -99 0
94 95 -99 0
-94 95 99 0
96 -97 100 0
-96 -97 -100 0
96 97 -100 0
-96 97 100 0
98 -99 101 0
-98 -99 -101 0
98 99 -101 0
-98 99 101 0
100 101 0
-100 -101 0
3 -4 102 0
-3 -4 -102 0
3 4 -102 0
-3 4 102 0
-7 11 103 0
7 11 -103 0
-7 -11 -103 0
7 -11 103 0
-16 -17 104 0
16 -17 -104 0
-16 17 -104 0
16 17 104 0
-20 22 105 0
20 22 -105 0
-20 -22 -105 0
20 -22 105 0
-24 -26 106 0
24 -26 -106 0
-24 26 -106 0
24 26 106 0
27 28 107 0
-27 28 -107 0
27 -28 -107 0
-27 -28 107 0
32 34 108 0
-32 34 -108 0
32 -34 -108 0
-32 -34 108 0
-35 -37 109 0
35 -37 -109 0
-35 37 -109 0
35 37 109 0
-40 -41 110 0
40 -41 -110 0
-40 41 -110 0
40 41 110 0
43 49 111 0
-43 49 -111 0
43 -49 -111 0
-43 -49 111 0
101 -102 112 0
-101 -102 -112 0
101 102 -112 0
-101 102 112 0
103 -104 113 0
-103 -104 -113 0
103 104 -113 0
-103 104 113 0
105 -106 114 0
-105 -106 -114 0
105 106 -114 0
-105 106 114 0
107 -108 115 0
-107 -108 -115 0
107 108 -115 0
-107 108 115 0
109 -110 116 0
-109 -110 -116 0
109 110 -116 0
-109 110 116 0
111 -112 117 0
-111 -112 -117 0
111 112 -117 0
-111 112 117 0
113 -114 118 0
-113 -114 -118 0
113 114 -118 0
-113 114 118 0
115 -116 119 0
-115 -116 -119 0
115 116 -119 0
-115 116 119 0
-117 -118 119 0
117 -118 -119 0
-117 118 -119 0
117 118 119 0
-1 2 120 0
1 2 -120 0
-1 -2 -120 0
1 -2 120 0
3 -4 121 0
-3 -4 -121 0
3 4 -121 0
-3 4 121 0
6 -7 122 0
-6 -7 -122 0
6 7 -122 0
-6 7 122 0
-9 10 123 0
9 10 -123 0
-9 -10 -123 0
9 -10 123 0
11 -13 124 0
-11 -13 -124 0
11 13 -124 0
-11 13 124 0
-14 -15 125 0
14 -15 -125 0
-14 15 -125 0
14 15 125 0
16 -18 126 0
-16 -18 -126 0
16 18 -126 0
-16 18 126 0
21 24 127 0
-21 24 -127 0
21 -24 -127 0
-21 -24 127 0
-25 27 128 0
25 27 -128 0
-25 -27 -128 0
25 -27 128 0
31 -34 129 0
-31 -34 -129 0
31 34 -129 0
-31 34 129 0
35 36 130 0
-35 36 -130 0
35 -36 -130 0
-35 -36 130 0
40 43 131 0
-40 43 -131 0
40 -43 -131 0
-40 -43 131 0
44 -48 132 0
-44 -48 -132 0
44 48 -132 0
-44 48 132 0
119 -120 133 0
-119 -120 -133 0
119 120 -133 0
-119 120 133 0
121 -122 134 0
-121 -122 -134 0
121 122 -134 0
-121 122 134 0
123 -124 135 0
-123 -124 -135 0
123 124 -135 0
-123 124 135 0
125 -126 136 0
-125 -126 -136 0
125 126 -136 0
-125 126 136 0
127 -128 137 0
-127 -128 -137 0
127 128 -137 0
-127 128 137 0
129 -130 138 0
-129 -130 -138 0
129 130 -138 0
-129 130 138 0
131 -132 139 0
-131 -132 -139 0
131 132 -139 0
-131 132 139 0
133 -134 140 0
-133 -134 -140 0
133 134 -140 0
-133 134 140 0
135 -136 141 0
-135 -136 -141 0
135 136 -141 0
-135 136 141 0
137 -138 142 0
-137 -138 -142 0
137 138 -142 0
-137 138 142 0
139 -140 143 0
-139 -140 -143 0
139 140 -143 0
-139 140 143 0
141 -142 144 0
-141 -142 -144 0
141 142 -144 0
-141 142 144 0
143 144 0
-143 -144 0
3 -4 145 0
-3 -4 -145 0
3 4 -145 0
-3 4 145 0
-5 -7 146 0
5 -7 -146 0
-5 7 -146 0
5 7 146 0
-8 -9 147 0
8 -9 -147 0
-8 9 -147 0
8 9 147 0
-10 -14 148 0
10 -14 -148 0
-10 14 -148 0
10 14 148 0
16 -18 149 0
-16 -18 -149 0
16 18 -149 0
-16 18 149 0
19 20 150 0
-19 20 -150 0
19 -20 -150 0
-19 -20 150 0
-22 -23 151 0
22 -23 -151 0
-22 23 -151 0
22 23 151 0
-24 -26 152 0
24 -26 -152 0
-24 26 -152 0
24 26 152 0
27 -29 153 0
-27 -29 -153 0
27 29 -153 0
-27 29 153 0
31 -37 154 0
-31 -37 -154 0
31 37 -154 0
-31 37 154 0
38 -39 155 0
-38 -39 -155 0
38 39 -155 0
-38 39 155 0
-40 -42 156 0
40 -42 -156 0
-40 42 -156 0
40 42 156 0
43 -47 157 0
-43 -47 -157 0
43 47 -157 0
-43 47 157 0
144 -145 158 0
-144 -145 -158 0
144 145 -158 0
-144 145 158 0
146 -147 159 0
-146 -147 -159 0
146 147 -159 0
-146 147 159 0
148 -149 160 0
-148 -149 -160 0
148 149 -160 0
-148 149 160 0
150 -151 161 0
-150 -151 -161 0
150 151 -161 0
-150 151 161 0
152 -153 162 0
-152 -153 -162 0
152 153 -162 0
-152 153 162 0
154 -155 163 0
-154 -155 -163 0
154 155 -163 0
-154 155 163 0
156 -157 164 0
-156 -157 -164 0
156 157 -164 0
-156 157 164 0
158 -159 165 0
-158 -159 -165 0
158 159 -165 0
-158 159 165 0
160 -161 166 0
-160 -161 -166 0
160 161 -166 0
-160 161 166 0
162 -163 167 0
-162 -163 -167 0
162 163 -167 0
-162 163 167 0
164 -165 168 0
-164 -165 -168 0
164 165 -168 0
-164 165 168 0
166 -167 169 0
-166 -167 -169 0
166 167 -169 0
-166 167 169 0
168 169 0
-168 -169 0
-5 6 170 0
5 6 -170 0
-5 -6 -170 0
5 -6 170 0
-10 -12 171 0
10 -12 -171 0
-10 12 -171 0
10 12 171 0
14 15 172 0
-14 15 -172 0
14 -15 -172 0
-14 -15 172 0
-16 20 173 0
16 20 -173 0
-16 -20 -173 0
16 -20 173 0
-21 22 174 0
21 22 -174 0
-21 -22 -174 0
21 -22 174 0
-24 25 175 0
24 25 -175 0
-24 -25 -175 0
24 -25 175 0
26 -27 176 0
-26 -27 -176 0
26 27 -176 0
-26 27 176 0
-29 34 177 0
29 34 -177 0
-29 -34 -177 0
29 -34 177 0
36 39 178 0
-36 39 -178 0
36 -39 -178 0
-36 -39 178 0
40 -41 179 0
-40 -41 -179 0
40 41 -179 0
-40 41 179 0
44 47 180 0
-44 47 -180 0
44 -47 -180 0
-44 -47 180 0
169 -170 181 0
-169 -170 -181 0
169 170 -181 0
-169 170 181 0
171 -172 182 0
-171 -172 -182 0
171 172 -182 0
-171 172 182 0
173 -174 183 0
-173 -174 -183 0
173 174 -183 0
-173 174 183 0
175 -176 184 0
-175 -176 -184 0
175 176 -184 0
-175 176 184 0
177 -178 185 0
-177 -178 -185 0
177 178 -185 0
-177 178 185 0
179 -180 186 0
-179 -180 -186 0
179 180 -186 0
-179 180 186 0
181 -182 187 0
-181 -182 -187 0
181 182 -187 0
-181 182 187 0
183 -184 188 0
-183 -184 -188 0
183 184 -188 0
-183 184 188 0
185 -186 189 0
-185 -186 -189 0
185 186 -189 0
-185 186 189 0
-187 -188 189 0
187 -188 -189 0
-187 188 -189 0
187 188 189 0
1 -3 190 0
-1 -3 -190 0
1 3 -190 0
-1 3 190 0
-6 -10 191 0
6 -10 -191 0
-6 10 -191 0
6 10 191 0
-13 -14 192 0
13 -14 -192 0
-13 14 -192 0
13 14 192 0
-15 17 193 0
15 17 -193 0
-15 -17 -193 0
15 -17 193 0
-20 -21 194 0
20 -21 -194 0
-20 21 -194 0
20 21 194 0
-22 24 195 0
22 24 -195 0
-22 -24 -195 0
22 -24 195 0
26 27 196 0
-26 27 -196 0
26 -27 -196 0
-26 -27 196 0
28 -32 197 0
-28 -32 -197 0
28 32 -197 0
-28 32 197 0
-37 40 198 0
37 40 -198 0
-37 -40 -198 0
37 -40 198 0
-45 -46 199 0
45 -46 -199 0
-45 46 -199 0
45 46 199 0
-49 -50 200 0
49 -50 -200 0
-49 50 -200 0
49 50 200 0
190 -191 201 0
-190 -191 -201 0
190 191 -201 0
-190 191 201 0
192 -193 202 0
-192 -193 -202 0
192 193 -202 0
-192 193 202 0
194 -195 203 0
-194 -195 -203 0
194 195 -203 0
-194 195 203 0
196 -197 204 0
-196 -197 -204 0
196 197 -204 0
-196 197 204 0
198 -199 205 0
-198 -199 -205 0
198 199 -205 0
-198 199 205 0
200 -201 206 0
-200 -201 -206 0
200 201 -206 0
-200 201 206 0
202 -203 207 0
-202 -203 -207 0
202 203 -207 0
-202 203 207 0
204 -205 208 0
-204 -205 -208 0
204 205 -208 0
-204 205 208 0
-206 -207 208 0
206 -207 -208 0
-206 207 -208 0
206 207 208 0
-4 8 209 0
4 8 -209 0
-4 -8 -209 0
4 -8 209 0
-9 -10 210 0
9 -10 -210 0
-9 10 -210 0
9 10 210 0
-13 -19 211 0
13 -19 -211 0
-13 19 -211 0
13 19 211 0
20 23 212 0
-20 23 -212 0
20 -23 -212 0
-20 -23 212 0
-24 -28 213 0
24 -28 -213 0
-24 28 -213 0
24 28 213 0
29 -31 214 0
-29 -31 -214 0
29 31 -214 0
-29 31 214 0
-32 -34 215 0
32 -34 -215 0
-32 34 -215 0
32 34 215 0
39 -40 216 0
-39 -40 -216 0
39 40 -216 0
-39 40 216 0
-41 -42 217 0
41 -42 -217 0
-41 42 -217 0
41 42 217 0
-44 46 218 0
44 46 -218 0
-44 -46 -218 0
44 -46 218 0
47 49 219 0
-47 49 -219 0
47 -49 -219 0
-47 -49 219 0
208 -209 220 0
-208 -209 -220 0
208 209 -220 0
-208 209 220 0
210 -211 221 0
-210 -211 -221 0
210 211 -221 0
-210 211 221 0
212 -213 222 0
-212 -213 -222 0
212 213 -222 0
-212 213 222 0
214 -215 223 0
-214 -215 -223 0
214 215 -223 0
-214 215 223 0
216 -217 224 0
-216 -217 -224 0
216 217 -224 0
-216 217 224 0
218 -219 225 0
-218 -219 -225 0
218 219 -225 0
-218 219 225 0
220 -221 226 0
-220 -221 -226 0
220 221 -226 0
-220 221 226 0
222 -223 227 0
-222 -223 -227 0
222 223 -227 0
-222 223 227 0
224 -225 228 0
-224 -225 -228 0
224 225 -228 0
-224 225 228 0
-226 -227 228 0
226 -227 -228 0
-226 227 -228 0
226 227 228 0
-2 8 229 0
2 8 -229 0
-2 -8 -229 0
2 -8 229 0
-9 -10 230 0
9 -10 -230 0
-9 10 -230 0
9 10 230 0
-15 17 231 0
15 17 -231 0
-15 -17 -231 0
15 -17 231 0
-18 19 232 0
18 19 -232 0
-18 -19 -232 0
18 -19 232 0
-20 -23 233 0
20 -23 -233 0
-20 23 -233 0
20 23 233 0
-24 -26 234 0
24 -26 -234 0
-24 26 -234 0
24 26 234 0
27 28 235 0
-27 28 -235 0
27 -28 -235 0
-27 -28 235 0
-29 30 236 0
29 30 -236 0
-29 -30 -236 0
29 -30 236 0
-31 -32 237 0
31 -32 -237 0
-31 32 -237 0
31 32 237 0
33 37 238 0
-33 37 -238 0
33 -37 -238 0
-33 -37 238 0
38 41 239 0
-38 41 -239 0
38 -41 -239 0
-38 -41 239 0
-42 45 240 0
42 45 -240 0
-42 -45 -240 0
42 -45 240 0
46 48 241 0
-46 48 -241 0
46 -48 -241 0
-46 -48 241 0
228 -229 242 0
-228 -229 -242 0
228 229 -242 0
-228 229 242 0
230 -231 243 0
-230 -231 -243 0
230 231 -243 0
-230 231 243 0
232 -233 244 0
-232 -233 -244 0
232 233 -244 0
-232 233 244 0
234 -235 245 0
-234 -235 -245 0
234 235 -245 0
-234 235 245 0
236 -237 246 0
-236 -237 -246 0
236 237 -246 0
-236 237 246 0
238 -239 247 0
-238 -239 -247 0
238 239 -247 0
-238 239 247 0
240 -241 248 0
-240 -241 -248 0
240 241 -248 0
-240 241 248 0
242 -243 249 0
-242 -243 -249 0
242 243 -249 0
-242 243 249 0
244 -245 250 0
-244 -245 -250 0
244 245 -250 0
-244 245 250 0
246 -247 251 0
-246 -247 -251 0
246 247 -251 0
-246 247 251 0
248 -249 252 0
-248 -249 -252 0
248 249 -252 0
-248 249 252 0
250 -251 253 0
-250 -251 -253 0
250 251 -253 0
-250 251 253 0
252 253 0
-252 -253 0
6 -8 254 0
-6 -8 -254 0
6 8 -254 0
-6 8 254 0
11 13 255 0
-11 13 -255 0
11 -13 -255 0
-11 -13 255 0
17 20 256 0
-17 20 -256 0
17 -20 -256 0
-17 -20 256 0
21 23 257 0
-21 23 -257 0
21 -23 -257 0
-21 -23 257 0
24 25 258 0
-24 25 -258 0
24 -25 -258 0
-24 -25 258 0
27 28 259 0
-27 28 -259 0
27 -28 -259 0
-27 -28 259 0
29 -30 260 0
-29 -30 -260 0
29 30 -260 0
-29 30 260 0
-36 -39 261 0
36 -39 -261 0
-36 39 -261 0
36 39 261 0
40 -41 262 0
-40 -41 -262 0
40 41 -262 0
-40 41 262 0
-42 -47 263 0
42 -47 -263 0
-42 47 -263 0
42 47 263 0
253 -254 264 0
-253 -254 -264 0
253 254 -264 0
-253 254 264 0
255 -256 265 0
-255 -256 -265 0
255 256 -265 0
-255 256 265 0
257 -258 266 0
-257 -258 -266 0
257 258 -266 0
-257 258 266 0
259 -260 267 0
-259 -260 -267 0
259 260 -267 0
-259 260 267 0
261 -262 268 0
-261 -262 -268 0
261 262 -268 0
-261 262 268 0
263 -264 269 0
-263 -264 -269 0
263 264 -269 0
-263 264 269 0
265 -266 270 0
-265 -266 -270 0
265 266 -270 0
-265 266 270 0
267 -268 271 0
-267 -268 -271 0
267 268 -271 0
-267 268 271 0
-269 -270 271 0
269 -270 -271 0
-269 270 -271 0
269 270 271 0
-5 6 272 0
5 6 -272 0
-5 -6 -272 0
5 -6 272 0
9 10 273 0
-9 10 -273 0
9 -10 -273 0
-9 -10 273 0
11 14 274 0
-11 14 -274 0
11 -14 -274 0
-11 -14 274 0
15 16 275 0
-15 16 -275 0
15 -16 -275 0
-15 -16 275 0
-18 19 276 0
18 19 -276 0
-18 -19 -276 0
18 -19 276 0
20 21 277 0
-20 21 -277 0
20 -21 -277 0
-20 -21 277 0
22 -24 278 0
-22 -24 -278 0
22 24 -278 0
-22 24 278 0
26 -27 279 0
-26 -27 -279 0
26 27 -279 0
-26 27 279 0
32 -34 280 0
-32 -34 -280 0
32 34 -280 0
-32 34 280 0
-35 37 281 0
35 37 -281 0
-35 -37 -281 0
35 -37 281 0
39 -41 282 0
-39 -41 -282 0
39 41 -282 0
-39 41 282 0
42 46 283 0
-42 46 -283 0
42 -46 -283 0
-42 -46 283 0
-47 -49 284 0
47 -49 -284 0
-47 49 -284 0
47 49 284 0
272 -273 285 0
-272 -273 -285 0
272 273 -285 0
-272 273 285 0
274 -275 286 0
-274 -275 -286 0
274 275 -286 0
-274 275 286 0
276 -277 287 0
-276 -277 -287 0
276 277 -287 0
-276 277 287 0
278 -279 288 0
-278 -279 -288 0
278 279 -288 0
-278 279 288 0
280 -281 289 0
-280 -281 -289 0
280 281 -289 0
-280 281 289 0
282 -283 290 0
-282 -283 -290 0
282 283 -290 0
-282 283 290 0
284 -285 291 0
-284 -285 -291 0
284 285 -291 0
-284 285 291 0
286 -287 292 0
-286 -287 -292 0
286 287 -292 0
-286 287 292 0
288 -289 293 0
-288 -289 -293 0
288 289 -293 0
-288 289 293 0
290 -291 294 0
-290 -291 -294 0
290 291 -294 0
-290 291 294 0
292 -293 295 0
-292 -293 -295 0
292 293 -295 0
-292 293 295 0
294 295 0
-294 -295 0
-1 2 296 0
1 2 -296 0
-1 -2 -296 0
1 -2 296 0
5 -6 297 0
-5 -6 -297 0
5 6 -297 0
-5 6 297 0
-7 9 298 0
7 9 -298 0
-7 -9 -298 0
7 -9 298 0
-10 12 299 0
10 12 -299 0
-10 -12 -299 0
10 -12 299 0
16 17 300 0
-16 17 -300 0
16 -17 -300 0
-16 -17 300 0
-21 22 301 0
21 22 -301 0
-21 -22 -301 0
21 -22 301 0
-26 -28 302 0
26 -28 -302 0
-26 28 -302 0
26 28 302 0
-29 -30 303 0
29 -30 -303 0
-29 30 -303 0
29 30 303 0
31 33 304 0
-31 33 -304 0
31 -33 -304 0
-31 -33 304 0
34 35 305 0
-34 35 -305 0
34 -35 -305 0
-34 -35 305 0
-36 41 306 0
36 41 -306 0
-36 -41 -306 0
36 -41 306 0
-42 -45 307 0
42 -45 -307 0
-42 45 -307 0
42 45 307 0
46 -47 308 0
-46 -47 -308 0
46 47 -308 0
-46 47 308 0
48 50 309 0
-48 50 -309 0
48 -50 -309 0
-48 -50 309 0
296 -297 310 0
-296 -297 -310 0
296 297 -310 0
-296 297 310 0
298 -299 311 0
-298 -299 -311 0
298 299 -311 0
-298 299 311 0
300 -301 312 0
-300 -301 -312 0
300 301 -312 0
-300 301 312 0
302 -303 313 0
-302 -303 -313 0
302 303 -313 0
-302 303 313 0
304 -305 314 0
-304 -305 -314 0
304 305 -314 0
-304 305 314 0
306 -307 315 0
-306 -307 -315 0
306 307 -315 0
-306 307 315 0
308 -309 316 0
-308 -309 -316 0
308 309 -316 0
-308 309 316 0
310 -311 317 0
-310 -311 -317 0
310 311 -317 0
-310 311 317 0
312 -313 318 0
-312 -313 -318 0
312 313 -318 0
-312 313 318 0
314 -315 319 0
-314 -315 -319 0
314 315 -319 0
-314 315 319 0
316 -317 320 0
-316 -317 -320 0
316 317 -320 0
-316 317 320 0
318 -319 321 0
-318 -319 -321 0
318 319 -321 0
-318 319 321 0
320 321 0
-320 -321 0
-5 -10 322 0
5 -10 -322 0
-5 10 -322 0
5 10 322 0
-11 12 323 0
11 12 -323 0
-11 -12 -323 0
11 -12 323 0
-14 -15 324 0
14 -15 -324 0
-14 15 -324 0
14 15 324 0
-17 -18 325 0
17 -18 -325 0
-17 18 -325 0
17 18 325 0
-20 -22 326 0
20 -22 -326 0
-20 22 -326 0
20 22 326 0
23 25 327 0
-23 25 -327 0
23 -25 -327 0
-23 -25 327 0
-27 30 328 0
27 30 -328 0
-27 -30 -328 0
27 -30 328 0
35 -36 329 0
-35 -36 -329 0
35 36 -329 0
-35 36 329 0
38 39 330 0
-38 39 -330 0
38 -39 -330 0
-38 -39 330 0
-41 45 331 0
41 45 -331 0
-41 -45 -331 0
41 -45 331 0
46 48 332 0
-46 48 -332 0
46 -48 -332 0
-46 -48 332 0
321 -322 333 0
-321 -322 -333 0
321 322 -333 0
-321 322 333 0
323 -324 334 0
-323 -324 -334 0
323 324 -334 0
-323 324 334 0
325 -326 335 0
-325 -326 -335 0
325 326 -335 0
-325 326 335 0
327 -328 336 0
-327 -328 -336 0
327 328 -336 0
-327 328 336 0
329 -330 337 0
-329 -330 -337 0
329 330 -337 0
-329 330 337 0
331 -332 338 0
-331 -332 -338 0
331 332 -338 0
-331 332 338 0
333 -334 339 0
-333 -334 -339 0
333 334 -339 0
-333 334 339 0
335 -336 340 0
-335 -336 -340 0
335 336 -340 0
-335 336 340 0
337 -338 341 0
-337 -338 -341 0
337 338 -341 0
-337 338 341 0
-339 -340 341 0
339 -340 -341 0
-339 340 -341 0
339 340 341 0
-2 8 342 0
2 8 -342 0
-2 -8 -342 0
2 -8 342 0
9 14 343 0
-9 14 -343 0
9 -14 -343 0
-9 -14 343 0
-15 19 344 0
15 19 -344 0
-15 -19 -344 0
15 -19 344 0
21 -23 345 0
-21 -23 -345 0
21 23 -345 0
-21 23 345 0
-27 30 346 0
27 30 -346 0
-27 -30 -346 0
27 -30 346 0
31 -32 347 0
-31 -32 -347 0
31 32 -347 0
-31 32 347 0
34 -36 348 0
-34 -36 -348 0
34 36 -348 0
-34 36 348 0
-39 -40 349 0
39 -40 -349 0
-39 40 -349 0
39 40 349 0
-41 46 350 0
41 46 -350 0
-41 -46 -350 0
41 -46 350 0
341 -342 351 0
-341 -342 -351 0
341 342 -351 0
-341 342 351 0
343 -344 352 0
-343 -344 -352 0
343 344 -352 0
-343 344 352 0
345 -346 353 0
-345 -346 -353 0
345 346 -353 0
-345 346 353 0
347 -348 354 0
-347 -348 -354 0
347 348 -354 0
-347 348 354 0
349 -350 355 0
-349 -350 -355 0
349 350 -355 0
-349 350 355 0
351 -352 356 0
-351 -352 -356 0
351 352 -356 0
-351 352 356 0
353 -354 357 0
-353 -354 -357 0
353 354 -357 0
-353 354 357 0
-355 -356 357 0
355 -356 -357 0
-355 356 -357 0
355 356 357 0
-1 -3 358 0
1 -3 -358 0
-1 3 -358 0
1 3 358 0
5 7 359 0
-5 7 -359 0
5 -7 -359 0
-5 -7 359 0
-11 15 360 0
11 15 -360 0
-11 -15 -360 0
11 -15 360 0
16 17 361 0
-16 17 -361 0
16 -17 -361 0
-16 -17 361 0
-18 -19 362 0
18 -19 -362 0
-18 19 -362 0
18 19 362 0
-20 -21 363 0
20 -21 -363 0
-20 21 -363 0
20 21 363 0
23 24 364 0
-23 24 -364 0
23 -24 -364 0
-23 -24 364 0
25 26 365 0
-25 26 -365 0
25 -26 -365 0
-25 -26 365 0
28 -29 366 0
-28 -29 -366 0
28 29 -366 0
-28 29 366 0
30 -33 367 0
-30 -33 -367 0
30 33 -367 0
-30 33 367 0
34 -38 368 0
-34 -38 -368 0
34 38 -368 0
-34 38 368 0
-42 -43 369 0
42 -43 -369 0
-42 43 -369 0
42 43 369 0
-44 47 370 0
44 47 -370 0
-44 -47 -370 0
44 -47 370 0
48 49 371 0
-48 49 -371 0
48 -49 -371 0
-48 -49 371 0
358 -359 372 0
-358 -359 -372 0
358 359 -372 0
-358 359 372 0
360 -361 373 0
-360 -361 -373 0
360 361 -373 0
-360 361 373 0
362 -363 374 0
-362 -363 -374 0
362 363 -374 0
-362 363 374 0
364 -365 375 0
-364 -365 -375 0
364 365 -375 0
-364 365 375 0
366 -367 376 0
-366 -367 -376 0
366 367 -376 0
-366 367 376 0
368 -369 377 0
-368 -369 -377 0
368 369 -377 0
-368 369 377 0
370 -371 378 0
-370 -371 -378 0
370 371 -378 0
-370 371 378 0
372 -373 379 0
-372 -373 -379 0
372 373 -379 0
-372 373 379 0
374 -375 380 0
-374 -375 -380 0
374 375 -380 0
-374 375 380 0
376 -377 381 0
-376 -377 -381 0
376 377 -381 0
-376 377 381 0
378 -379 382 0
-378 -379 -382 0
378 379 -382 0
-378 379 382 0
380 -381 383 0
-380 -381 -383 0
380 381 -383 0
-380 381 383 0
382 383 0
-382 -383 0
-1 -6 384 0
1 -6 -384 0
-1 6 -384 0
1 6 384 0
-7 -8 385 0
7 -8 -385 0
-7 8 -385 0
7 8 385 0
-9 -13 386 0
9 -13 -386 0
-9 13 -386 0
9 13 386 0
14 -16 387 0
-14 -16 -387 0
14 16 -387 0
-14 16 387 0
17 18 388 0
-17 18 -388 0
17 -18 -388 0
-17 -18 388 0
-19 24 389 0
19 24 -389 0
-19 -24 -389 0
19 -24 389 0
-25 -29 390 0
25 -29 -390 0
-25 29 -390 0
25 29 390 0
30 -31 391 0
-30 -31 -391 0
30 31 -391 0
-30 31 391 0
-34 35 392 0
34 35 -392 0
-34 -35 -392 0
34 -35 392 0
-39 -40 393 0
39 -40 -393 0
-39 40 -393 0
39 40 393 0
41 -42 394 0
-41 -42 -394 0
41 42 -394 0
-41 42 394 0
43 -44 395 0
-43 -44 -395 0
43 44 -395 0
-43 44 395 0
-45 -46 396 0
45 -46 -396 0
-45 46 -396 0
45 46 396 0
-48 -49 397 0
48 -49 -397 0
-48 49 -397 0
48 49 397 0
383 -384 398 0
-383 -384 -398 0
383 384 -398 0
-383 384 398 0
385 -386 399 0
-385 -386 -399 0
385 386 -399 0
-385 386 399 0
387 -388 400 0
-387 -388 -400 0
387 388 -400 0
-387 388 400 0
389 -390 401 0
-389 -390 -401 0
389 390 -401 0
-389 390 401 0
391 -392 402 0
-391 -392 -402 0
391 392 -402 0
-391 392 402 0
393 -394 403 0
-393 -394 -403 0
393 394 -403 0
-393 394 403 0
395 -396 404 0
-395 -396 -404 0
395 396 -404 0
-395 396 404 0
397 -398 405 0
-397 -398 -405 0
397 398 -405 0
-397 398 405 0
399 -400 406 0
-399 -400 -406 0
399 400 -406 0
-399 400 406 0
401 -402 407 0
-401 -402 -407 0
401 402 -407 0
-401 402 407 0
403 -404 408 0
-403 -404 -408 0
403 404 -408 0
-403 404 408 0
405 -406 409 0
-405 -406 -409 0
405 406 -409 0
-405 406 409 0
407 -408 410 0
-407 -408 -410 0
407 408 -410 0
-407 408 410 0
409 410 0
-409 -410 0
1 -4 411 0
-1 -4 -411 0
1 4 -411 0
-1 4 411 0
-5 -6 412 0
5 -6 -412 0
-5 6 -412 0
5 6 412 0
8 -10 413 0
-8 -10 -413 0
8 10 -413 0
-8 10 413 0
-11 14 414 0
11 14 -414 0
-11 -14 -414 0
11 -14 414 0
-16 17 415 0
16 17 -415 0
-16 -17 -415 0
16 -17 415 0
19 22 416 0
-19 22 -416 0
19 -22 -416 0
-19 -22 416 0
-30 32 417 0
30 32 -417 0
-30 -32 -417 0
30 -32 417 0
33 34 418 0
-33 34 -418 0
33 -34 -418 0
-33 -34 418 0
-35 37 419 0
35 37 -419 0
-35 -37 -419 0
35 -37 419 0
39 47 420 0
-39 47 -420 0
39 -47 -420 0
-39 -47 420 0
410 -411 421 0
-410 -411 -421 0
410 411 -421 0
-410 411 421 0
412 -413 422 0
-412 -413 -422 0
412 413 -422 0
-412 413 422 0
414 -415 423 0
-414 -415 -423 0
414 415 -423 0
-414 415 423 0
416 -417 424 0
-416 -417 -424 0
416 417 -424 0
-416 417 424 0
418 -419 425 0
-418 -419 -425 0
418 419 -425 0
-418 419 425 0
420 -421 426 0
-420 -421 -426 0
420 421 -426 0
-420 421 426 0
422 -423 427 0
-422 -423 -427 0
422 423 -427 0
-422 423 427 0
424 -425 428 0
-424 -425 -428 0
424 425 -428 0
-424 425 428 0
-426 -427 428 0
426 -427 -428 0
-426 427 -428 0
426 427 428 0
1 3 429 0
-1 3 -429 0
1 -3 -429 0
-1 -3 429 0
5 6 430 0
-5 6 -430 0
5 -6 -430 0
-5 -6 430 0
7 -9 431 0
-7 -9 -431 0
7 9 -431 0
-7 9 431 0
11 12 432 0
-11 12 -432 0
11 -12 -432 0
-11 -12 432 0
13 14 433 0
-13 14 -433 0
13 -14 -433 0
-13 -14 433 0
17 18 434 0
-17 18 -434 0
17 -18 -434 0
-17 -18 434 0
19 -21 435 0
-19 -21 -435 0
19 21 -435 0
-19 21 435 0
-22 24 436 0
22 24 -436 0
-22 -24 -436 0
22 -24 436 0
-26 28 437 0
26 28 -437 0
-26 -28 -437 0
26 -28 437 0
-29 31 438 0
29 31 -438 0
-29 -31 -438 0
29 -31 438 0
33 -37 439 0
-33 -37 -439 0
33 37 -439 0
-33 37 439 0
-38 -40 440 0
38 -40 -440 0
-38 40 -440 0
38 40 440 0
-41 -45 441 0
41 -45 -441 0
-41 45 -441 0
41 45 441 0
46 -47 442 0
-46 -47 -442 0
46 47 -442 0
-46 47 442 0
-48 49 443 0
48 49 -443 0
-48 -49 -443 0
48 -49 443 0
429 -430 444 0
-429 -430 -444 0
429 430 -444 0
-429 430 444 0
431 -432 445 0
-431 -432 -445 0
431 432 -445 0
-431 432 445 0
433 -434 446 0
-433 -434 -446 0
433 434 -446 0
-433 434 446 0
435 -436 447 0
-435 -436 -447 0
435 436 -447 0
-435 436 447 0
437 -438 448 0
-437 -438 -448 0
437 438 -448 0
-437 438 448 0
439 -440 449 0
-439 -440 -449 0
439 440 -449 0
-439 440 449 0
441 -442 450 0
-441 -442 -450 0
441 442 -450 0
-441 442 450 0
443 -444 451 0
-443 -444 -451 0
443 444 -451 0
-443 444 451 0
445 -446 452 0
-445 -446 -452 0
445 446 -452 0
-445 446 452 0
447 -448 453 0
-447 -448 -453 0
447 448 -453 0
-447 448 453 0
449 -450 454 0
-449 -450 -454 0
449 450 -454 0
-449 450 454 0
451 -452 455 0
-451 -452 -455 0
451 452 -455 0
-451 452 455 0
453 -454 456 0
-453 -454 -456 0
453 454 -456 0
-453 454 456 0
455 456 0
-455 -456 0
-1 -2 457 0
1 -2 -457 0
-1 2 -457 0
1 2 457 0
-3 -6 458 0
3 -6 -458 0
-3 6 -458 0
3 6 458 0
-7 -10 459 0
7 -10 -459 0
-7 10 -459 0
7 10 459 0
-11 16 460 0
11 16 -460 0
-11 -16 -460 0
11 -16 460 0
18 -19 461 0
-18 -19 -461 0
18 19 -461 0
-18 19 461 0
-20 21 462 0
20 21 -462 0
-20 -21 -462 0
20 -21 462 0
24 -25 463 0
-24 -25 -463 0
24 25 -463 0
-24 25 463 0
-27 -30 464 0
27 -30 -464 0
-27 30 -464 0
27 30 464 0
-31 32 465 0
31 32 -465 0
-31 -32 -465 0
31 -32 465 0
-34 35 466 0
34 35 -466 0
-34 -35 -466 0
34 -35 466 0
38 39 467 0
-38 39 -467 0
38 -39 -467 0
-38 -39 467 0
43 -45 468 0
-43 -45 -468 0
43 45 -468 0
-43 45 468 0
-46 -49 469 0
46 -49 -469 0
-46 49 -469 0
46 49 469 0
457 -458 470 0
-457 -458 -470 0
457 458 -470 0
-457 458 470 0
459 -460 471 0
-459 -460 -471 0
459 460 -471 0
-459 460 471 0
461 -462 472 0
-461 -462 -472 0
461 462 -472 0
-461 462 472 0
463 -464 473 0
-463 -464 -473 0
463 464 -473 0
-463 464 473 0
465 -466 474 0
-465 -466 -474 0
465 466 -474 0
-465 466 474 0
467 -468 475 0
-467 -468 -475 0
467 468 -475 0
-467 468 475 0
469 -470 476 0
-469 -470 -476 0
469 470 -476 0
-469 470 476 0
471 -472 477 0
-471 -472 -477 0
471 472 -477 0
-471 472 477 0
473 -474 478 0
-473 -474 -478 0
473 474 -478 0
-473 474 478 0
475 -476 479 0
-475 -476 -479 0
475 476 -479 0
-475 476 479 0
477 -478 480 0
-477 -478 -480 0
477 478 -480 0
-477 478 480 0
479 480 0
-479 -480 0
-8 -9 481 0
8 -9 -481 0
-8 9 -481 0
8 9 481 0
-12 -13 482 0
12 -13 -482 0
-12 13 -482 0
12 13 482 0
-17 -18 483 0
17 -18 -483 0
-17 18 -483 0
17 18 483 0
19 -20 484 0
-19 -20 -484 0
19 20 -484 0
-19 20 484 0
-23 27 485 0
23 27 -485 0
-23 -27 -485 0
23 -27 485 0
28 29 486 0
-28 29 -486 0
28 -29 -486 0
-28 -29 486 0
-32 -34 487 0
32 -34 -487 0
-32 34 -487 0
32 34 487 0
37 -38 488 0
-37 -38 -488 0
37 38 -488 0
-37 38 488 0
39 41 489 0
-39 41 -489 0
39 -41 -489 0
-39 -41 489 0
44 48 490 0
-44 48 -490 0
44 -48 -490 0
-44 -48 490 0
480 -481 491 0
-480 -481 -491 0
480 481 -491 0
-480 481 491 0
482 -483 492 0
-482 -483 -492 0
482 483 -492 0
-482 483 492 0
484 -485 493 0
-484 -485 -493 0
484 485 -493 0
-484 485 493 0
486 -487 494 0
-486 -487 -494 0
486 487 -494 0
-486 487 494 0
488 -489 495 0
-488 -489 -495 0
488 489 -495 0
-488 489 495 0
490 -491 496 0
-490 -491 -496 0
490 491 -496 0
-490 491 496 0
492 -493 497 0
-492 -493 -497 0
492 493 -497 0
-492 493 497 0
494 -495 498 0
-494 -495 -498 0
494 495 -498 0
-494 495 498 0
-496 -497 498 0
496 -497 -498 0
-496 497 -498 0
496 497 498 0
-12 499 0
-24 499 0
-12 -24 500 0
-23 499 0
-12 -23 500 0
-24 -23 500 0
-12 -24 -23 501 0
-22 502 0
-21 502 0
-22 -21 503 0
-20 502 0
-22 -20 503 0
-21 -20 503 0
-22 -21 -20 504 0
-499 505 0
-500 506 0
-501 507 0
-502 505 0
-503 506 0
-504 507 0
-499 -502 506 0
-499 -503 507 0
-499 -504 508 0
-500 -502 507 0
-500 -503 508 0
-500 -504 509 0
-501 -502 508 0
-501 -503 509 0
-501 -504 510 0
-19 511 0
-18 511 0
-19 -18 512 0
-17 511 0
-19 -17 512 0
-18 -17 512 0
-19 -18 -17 513 0
-16 514 0
-15 514 0
-16 -15 515 0
-14 514 0
-16 -14 515 0
-15 -14 515 0
-16 -15 -14 516 0
-511 517 0
-512 518 0
-513 519 0
-514 517 0
-515 518 0
-516 519 0
-511 -514 518 0
-511 -515 519 0
-511 -516 520 0
-512 -514 519 0
-512 -515 520 0
-512 -516 521 0
-513 -514 520 0
-513 -515 521 0
-513 -516 522 0
-505 523 0
-507 524 0
-509 525 0
-517 523 0
-519 524 0
-521 525 0
-505 -517 524 0
-505 -519 525 0
-505 -521 526 0
-507 -517 525 0
-507 -519 526 0
-507 -521 527 0
-509 -517 526 0
-509 -519 527 0
-509 -521 528 0
-506 529 0
-508 530 0
-510 531 0
-518 529 0
-520 530 0
-522 531 0
-506 -518 530 0
-506 -520 531 0
-506 -522 532 0
-508 -518 531 0
-508 -520 532 0
-508 -522 533 0
-510 -518 532 0
-510 -520 533 0
-510 -522 534 0
-524 535 0
-529 535 0
-524 -529 536 0
-525 537 0
-530 537 0
-525 -530 538 0
-526 539 0
-531 539 0
-526 -531 540 0
-527 541 0
-532 541 0
-527 -532 542 0
-528 543 0
-533 543 0
-528 -533 544 0
-13 545 0
-25 545 0
-13 -25 546 0
-11 545 0
-13 -11 546 0
-25 -11 546 0
-13 -25 -11 547 0
-10 548 0
-9 548 0
-10 -9 549 0
-8 548 0
-10 -8 549 0
-9 -8 549 0
-10 -9 -8 550 0
-545 551 0
-546 552 0
-547 553 0
-548 551 0
-549 552 0
-550 553 0
-545 -548 552 0
-545 -549 553 0
-545 -550 554 0
-546 -548 553 0
-546 -549 554 0
-546 -550 555 0
-547 -548 554 0
-547 -549 555 0
-547 -550 556 0
-7 557 0
-6 557 0
-7 -6 558 0
-5 557 0
-7 -5 558 0
-6 -5 558 0
-7 -6 -5 559 0
-4 560 0
-3 560 0
-4 -3 561 0
-2 560 0
-4 -2 561 0
-3 -2 561 0
-4 -3 -2 562 0
-557 563 0
-558 564 0
-559 565 0
-560 563 0
-561 564 0
-562 565 0
-557 -560 564 0
-557 -561 565 0
-557 -562 566 0
-558 -560 565 0
-558 -561 566 0
-558 -562 567 0
-559 -560 566 0
-559 -561 567 0
-559 -562 568 0
-551 569 0
-553 570 0
-555 571 0
-563 569 0
-565 570 0
-567 571 0
-551 -563 570 0
-551 -565 571 0
-551 -567 572 0
-553 -563 571 0
-553 -565 572 0
-553 -567 573 0
-555 -563 572 0
-555 -565 573 0
-555 -567 574 0
-552 575 0
-554 576 0
-556 577 0
-564 575 0
-566 576 0
-568 577 0
-552 -564 576 0
-552 -566 577 0
-552 -568 578 0
-554 -564 577 0
-554 -566 578 0
-554 -568 579 0
-556 -564 578 0
-556 -566 579 0
-556 -568 580 0
-570 581 0
-575 581 0
-570 -575 582 0
-571 583 0
-576 583 0
-571 -576 584 0
-572 585 0
-577 585 0
-572 -577 586 0
-573 587 0
-578 587 0
-573 -578 588 0
-574 589 0
-579 589 0
-574 -579 590 0
-1 591 0
-37 591 0
-1 -37 592 0
-49 591 0
-1 -49 592 0
-37 -49 592 0
-1 -37 -49 593 0
-48 594 0
-47 594 0
-48 -47 595 0
-46 594 0
-48 -46 595 0
-47 -46 595 0
-48 -47 -46 596 0
-591 597 0
-592 598 0
-593 599 0
-594 597 0
-595 598 0
-596 599 0
-591 -594 598 0
-591 -595 599 0
-591 -596 600 0
-592 -594 599 0
-592 -595 600 0
-592 -596 601 0
-593 -594 600 0
-593 -595 601 0
-593 -596 602 0
-45 603 0
-44 603 0
-45 -44 604 0
-43 603 0
-45 -43 604 0
-44 -43 604 0
-45 -44 -43 605 0
-42 606 0
-41 606 0
-42 -41 607 0
-40 606 0
-42 -40 607 0
-41 -40 607 0
-42 -41 -40 608 0
-603 609 0
-604 610 0
-605 611 0
-606 609 0
-607 610 0
-608 611 0
-603 -606 610 0
-603 -607 611 0
-603 -608 612 0
-604 -606 611 0
-604 -607 612 0
-604 -608 613 0
-605 -606 612 0
-605 -607 613 0
-605 -608 614 0
-597 615 0
-599 616 0
-601 617 0
-609 615 0
-611 616 0
-613 617 0
-597 -609 616 0
-597 -611 617 0
-597 -613 618 0
-599 -609 617 0
-599 -611 618 0
-599 -613 619 0
-601 -609 618 0
-601 -611 619 0
-601 -613 620 0
-598 621 0
-600 622 0
-602 623 0
-610 621 0
-612 622 0
-614 623 0
-598 -610 622 0
-598 -612 623 0
-598 -614 624 0
-600 -610 623 0
-600 -612 624 0
-600 -614 625 0
-602 -610 624 0
-602 -612 625 0
-602 -614 626 0
-616 627 0
-621 627 0
-616 -621 628 0
-617 629 0
-622 629 0
-617 -622 630 0
-618 631 0
-623 631 0
-618 -623 632 0
-619 633 0
-624 633 0
-619 -624 634 0
-620 635 0
-625 635 0
-620 -625 636 0
-39 637 0
-38 637 0
-39 -38 638 0
-50 637 0
-39 -50 638 0
-38 -50 638 0
-39 -38 -50 639 0
-36 640 0
-35 640 0
-36 -35 641 0
-34 640 0
-36 -34 641 0
-35 -34 641 0
-36 -35 -34 642 0
-637 643 0
-638 644 0
-639 645 0
-640 643 0
-641 644 0
-642 645 0
-637 -640 644 0
-637 -641 645 0
-637 -642 646 0
-638 -640 645 0
-638 -641 646 0
-638 -642 647 0
-639 -640 646 0
-639 -641 647 0
-639 -642 648 0
-33 649 0
-32 649 0
-33 -32 650 0
-31 649 0
-33 -31 650 0
-32 -31 650 0
-33 -32 -31 651 0
-30 652 0
-29 652 0
-30 -29 653 0
-28 654 0
-27 654 0
-28 -27 655 0
-26 654 0
-28 -26 655 0
-27 -26 655 0
-28 -27 -26 656 0
-652 657 0
-653 658 0
-654 657 0
-655 658 0
-656 659 0
-652 -654 658 0
-652 -655 659 0
-652 -656 660 0
-653 -654 659 0
-653 -655 660 0
-653 -656 661 0
-649 662 0
-650 663 0
-651 664 0
-657 662 0
-658 663 0
-659 664 0
-660 665 0
-661 666 0
-649 -657 663 0
-649 -658 664 0
-649 -659 665 0
-649 -660 666 0
-649 -661 667 0
-650 -657 664 0
-650 -658 665 0
-650 -659 666 0
-650 -660 667 0
-650 -661 668 0
-651 -657 665 0
-651 -658 666 0
-651 -659 667 0
-651 -660 668 0
-651 -661 669 0
-643 670 0
-645 671 0
-647 672 0
-662 670 0
-664 671 0
-666 672 0
-668 673 0
-643 -662 671 0
-643 -664 672 0
-643 -666 673 0
-643 -668 674 0
-645 -662 672 0
-645 -664 673 0
-645 -666 674 0
-645 -668 675 0
-647 -662 673 0
-647 -664 674 0
-647 -666 675 0
-647 -668 676 0
-644 677 0
-646 678 0
-648 679 0
-663 677 0
-665 678 0
-667 679 0
-669 680 0
-644 -663 678 0
-644 -665 679 0
-644 -667 680 0
-644 -669 681 0
-646 -663 679 0
-646 -665 680 0
-646 -667 681 0
-646 -669 682 0
-648 -663 680 0
-648 -665 681 0
-648 -667 682 0
-648 -669 683 0
-671 684 0
-677 684 0
-671 -677 685 0
-672 686 0
-678 686 0
-672 -678 687 0
-673 688 0
-679 688 0
-673 -679 689 0
-674 690 0
-680 690 0
-674 -680 691 0
-675 692 0
-681 692 0
-675 -681 693 0
-676 694 0
-682 694 0
-676 -682 695 0
-615 696 0
-630 697 0
-634 698 0
-670 696 0
-687 697 0
-691 698 0
-695 699 0
-615 -670 697 0
-615 -687 698 0
-615 -691 699 0
-615 -695 700 0
-630 -670 698 0
-630 -687 699 0
-630 -691 700 0
-634 -670 699 0
-634 -687 700 0
-628 701 0
-632 702 0
-636 703 0
-685 701 0
-689 702 0
-693 703 0
-628 -685 702 0
-628 -689 703 0
-628 -693 704 0
-632 -685 703 0
-632 -689 704 0
-636 -685 704 0
-697 705 0
-701 705 0
-697 -701 706 0
-698 707 0
-702 707 0
-698 -702 708 0
-699 709 0
-703 709 0
-699 -703 710 0
-700 711 0
-704 711 0
-700 -704 712 0
-627 713 0
-631 714 0
-635 715 0
-684 713 0
-688 714 0
-692 715 0
-683 716 0
-627 -684 714 0
-627 -688 715 0
-627 -692 716 0
-627 -683 717 0
-631 -684 715 0
-631 -688 716 0
-631 -692 717 0
-635 -684 716 0
-635 -688 717 0
-629 718 0
-633 719 0
-626 720 0
-686 718 0
-690 719 0
-694 720 0
-629 -686 719 0
-629 -690 720 0
-629 -694 721 0
-633 -686 720 0
-633 -690 721 0
-626 -686 721 0
-714 722 0
-718 722 0
-714 -718 723 0
-715 724 0
-719 724 0
-715 -719 725 0
-716 726 0
-720 726 0
-716 -720 727 0
-717 728 0
-721 728 0
-705 729 0
-713 729 0
-705 -713 730 0
-706 731 0
-722 731 0
-706 -722 732 0
-707 733 0
-723 733 0
-707 -723 734 0
-708 735 0
-724 735 0
-708 -724 736 0
-709 737 0
-725 737 0
-709 -725 738 0
-710 739 0
-726 739 0
-710 -726 740 0
-711 741 0
-727 741 0
-711 -727 742 0
-712 743 0
-728 743 0
-569 744 0
-584 745 0
-588 746 0
-696 744 0
-732 745 0
-736 746 0
-740 747 0
-569 -696 745 0
-569 -732 746 0
-569 -736 747 0
-569 -740 748 0
-584 -696 746 0
-584 -732 747 0
-584 -736 748 0
-588 -696 747 0
-588 -732 748 0
-582 749 0
-586 750 0
-590 751 0
-730 749 0
-734 750 0
-738 751 0
-742 752 0
-582 -730 750 0
-582 -734 751 0
-582 -738 752 0
-586 -730 751 0
-586 -734 752 0
-590 -730 752 0
-745 753 0
-749 753 0
-745 -749 754 0
-746 755 0
-750 755 0
-746 -750 756 0
-747 757 0
-751 757 0
-747 -751 758 0
-748 759 0
-752 759 0
-748 -752 760 0
-581 761 0
-585 762 0
-589 763 0
-729 761 0
-733 762 0
-737 763 0
-741 764 0
-581 -729 762 0
-581 -733 763 0
-581 -737 764 0
-581 -741 765 0
-585 -729 763 0
-585 -733 764 0
-585 -737 765 0
-589 -729 764 0
-589 -733 765 0
-583 766 0
-587 767 0
-580 768 0
-731 766 0
-735 767 0
-739 768 0
-743 769 0
-583 -731 767 0
-583 -735 768 0
-583 -739 769 0
-587 -731 768 0
-587 -735 769 0
-580 -731 769 0
-762 770 0
-766 770 0
-762 -766 771 0
-763 772 0
-767 772 0
-763 -767 773 0
-764 774 0
-768 774 0
-764 -768 775 0
-765 776 0
-769 776 0
-753 777 0
-761 777 0
-753 -761 778 0
-754 779 0
-770 779 0
-754 -770 780 0
-755 781 0
-771 781 0
-755 -771 782 0
-756 783 0
-772 783 0
-756 -772 784 0
-757 785 0
-773 785 0
-757 -773 786 0
-758 787 0
-774 787 0
-758 -774 788 0
-759 789 0
-775 789 0
-759 -775 790 0
-760 791 0
-776 791 0
-523 792 0
-538 793 0
-542 794 0
-744 792 0
-780 793 0
-784 794 0
-788 795 0
-523 -744 793 0
-523 -780 794 0
-523 -784 795 0
-523 -788 796 0
-538 -744 794 0
-538 -780 795 0
-538 -784 796 0
-542 -744 795 0
-542 -780 796 0
-536 797 0
-540 798 0
-544 799 0
-778 797 0
-782 798 0
-786 799 0
-790 800 0
-536 -778 798 0
-536 -782 799 0
-536 -786 800 0
-540 -778 799 0
-540 -782 800 0
-544 -778 800 0
-793 801 0
-797 801 0
-793 -797 802 0
-794 803 0
-798 803 0
-794 -798 804 0
-795 805 0
-799 805 0
-795 -799 806 0
-796 807 0
-800 807 0
-796 -800 808 0
-535 809 0
-539 810 0
-543 811 0
-777 809 0
-781 810 0
-785 811 0
-789 812 0
-535 -777 810 0
-535 -781 811 0
-535 -785 812 0
-535 -789 813 0
-539 -777 811 0
-539 -781 812 0
-539 -785 813 0
-543 -777 812 0
-543 -781 813 0
-537 814 0
-541 815 0
-534 816 0
-779 814 0
-783 815 0
-787 816 0
-791 817 0
-537 -779 815 0
-537 -783 816 0
-537 -787 817 0
-541 -779 816 0
-541 -783 817 0
-534 -779 817 0
-810 818 0
-814 818 0
-810 -814 819 0
-811 820 0
-815 820 0
-811 -815 821 0
-812 822 0
-816 822 0
-812 -816 823 0
-813 824 0
-817 824 0
-801 825 0
-809 825 0
-801 -809 826 0
-802 827 0
-818 827 0
-802 -818 828 0
-803 829 0
-819 829 0
-803 -819 830 0
-804 831 0
-820 831 0
-804 -820 832 0
-805 833 0
-821 833 0
-805 -821 834 0
-806 835 0
-822 835 0
-806 -822 836 0
-807 837 0
-823 837 0
-807 -823 838 0
-808 839 0
-824 839 0
-839 0
